NAME : CMT13.1541137.tour
COMMENT : Cost = 0_1541137
COMMENT : Found by LKH [Keld Helsgaun] Fri May  5 17:05:22 2017
TYPE : TOUR
DIMENSION : 131
TOUR_SECTION
1
2
127
102
101
99
100
116
103
104
107
106
105
120
129
119
81
117
83
113
84
112
85
86
111
82
88
131
28
31
36
34
33
30
27
12
8
7
121
26
32
35
29
49
46
44
41
37
115
123
108
17
16
19
22
24
25
23
20
21
109
130
40
43
45
48
51
50
47
42
39
38
126
98
68
79
80
56
55
57
54
52
110
122
87
92
89
91
90
18
118
114
97
94
93
96
95
125
59
65
61
62
64
66
63
60
58
53
128
67
69
70
71
74
75
72
78
77
76
73
124
6
5
10
9
13
14
15
11
4
3
-1
EOF
